N = 111;
M = 452;
Edge_Start = [1, 1, 2, 2, 3, 4, 4, 5, 6, 6, 6, 7, 7, 7, 8, 9, 9, 10, 11, 11, 12, 13, 14, 14, 15, 15, 15, 15, 16, 16, 16, 17, 17, 17, 18, 18, 19, 19, 19, 20, 20, 21, 21, 22, 22, 22, 23, 23, 23, 24, 24, 24, 25, 25, 26, 26, 26, 27, 27, 27, 28, 28, 29, 30, 30, 30, 31, 31, 32, 32, 33, 33, 33, 34, 34, 35, 35, 36, 36, 37, 38, 38, 39, 39, 39, 40, 40, 41, 41, 42, 42, 42, 43, 43, 44, 45, 46, 46, 47, 47, 48, 48, 48, 49, 49, 49, 50, 51, 51, 51, 52, 52, 53, 53, 54, 54, 54, 55, 56, 57, 57, 58, 59, 60, 61, 62, 62, 63, 63, 63, 64, 65, 65, 66, 67, 67, 68, 68, 69, 69, 70, 70, 70, 71, 71, 71, 72, 72, 73, 73, 73, 74, 74, 75, 75, 75, 75, 76, 77, 78, 78, 79, 80, 80, 81, 81, 82, 82, 82, 83, 83, 83, 84, 84, 84, 85, 85, 85, 86, 86, 86, 87, 87, 88, 89, 90, 91, 91, 91, 92, 92, 93, 93, 94, 94, 95, 96, 96, 97, 97, 98, 99, 99, 100, 100, 101, 101, 102, 102, 103, 103, 103, 104, 105, 106, 107, 108, 108, 108, 109, 110, 110, 110, 111, 111, 111, 27, 48, 35, 47, 57, 73, 103, 97, 15, 48, 53, 82, 85, 111, 99, 14, 90, 11, 10, 64, 3, 67, 88, 91, 6, 19, 49, 51, 24, 30, 33, 54, 63, 82, 51, 75, 15, 63, 75, 22, 28, 22, 26, 20, 21, 23, 22, 26, 33, 16, 32, 75, 32, 86, 21, 23, 86, 1, 54, 108, 20, 36, 43, 16, 71, 83, 76, 80, 24, 25, 16, 23, 86, 35, 47, 34, 38, 28, 37, 36, 40, 43, 69, 84, 110, 34, 38, 79, 94, 47, 94, 96, 13, 68, 60, 60, 101, 105, 2, 42, 1, 6, 49, 15, 48, 63, 2, 15, 18, 53, 13, 68, 6, 51, 17, 27, 85, 50, 31, 50, 55, 92, 56, 61, 62, 44, 95, 17, 19, 49, 59, 78, 92, 75, 5, 93, 40, 43, 39, 108, 71, 83, 111, 30, 70, 82, 73, 103, 4, 72, 74, 29, 73, 18, 19, 24, 66, 93, 78, 65, 77, 41, 59, 98, 45, 84, 7, 17, 71, 30, 70, 110, 39, 81, 101, 7, 54, 111, 25, 26, 33, 99, 100, 106, 9, 12, 14, 74, 90, 65, 96, 52, 58, 41, 42, 89, 42, 52, 80, 98, 10, 8, 87, 87, 102, 46, 84, 100, 103, 4, 72, 102, 109, 46, 104, 8, 27, 69, 110, 107, 39, 83, 108, 7, 70, 85];
Edge_End = [27, 48, 35, 47, 57, 73, 103, 97, 15, 48, 53, 82, 85, 111, 99, 14, 90, 11, 10, 64, 3, 67, 88, 91, 6, 19, 49, 51, 24, 30, 33, 54, 63, 82, 51, 75, 15, 63, 75, 22, 28, 22, 26, 20, 21, 23, 22, 26, 33, 16, 32, 75, 32, 86, 21, 23, 86, 1, 54, 108, 20, 36, 43, 16, 71, 83, 76, 80, 24, 25, 16, 23, 86, 35, 47, 34, 38, 28, 37, 36, 40, 43, 69, 84, 110, 34, 38, 79, 94, 47, 94, 96, 13, 68, 60, 60, 101, 105, 2, 42, 1, 6, 49, 15, 48, 63, 2, 15, 18, 53, 13, 68, 6, 51, 17, 27, 85, 50, 31, 50, 55, 92, 56, 61, 62, 44, 95, 17, 19, 49, 59, 78, 92, 75, 5, 93, 40, 43, 39, 108, 71, 83, 111, 30, 70, 82, 73, 103, 4, 72, 74, 29, 73, 18, 19, 24, 66, 93, 78, 65, 77, 41, 59, 98, 45, 84, 7, 17, 71, 30, 70, 110, 39, 81, 101, 7, 54, 111, 25, 26, 33, 99, 100, 106, 9, 12, 14, 74, 90, 65, 96, 52, 58, 41, 42, 89, 42, 52, 80, 98, 10, 8, 87, 87, 102, 46, 84, 100, 103, 4, 72, 102, 109, 46, 104, 8, 27, 69, 110, 107, 39, 83, 108, 7, 70, 85, 1, 1, 2, 2, 3, 4, 4, 5, 6, 6, 6, 7, 7, 7, 8, 9, 9, 10, 11, 11, 12, 13, 14, 14, 15, 15, 15, 15, 16, 16, 16, 17, 17, 17, 18, 18, 19, 19, 19, 20, 20, 21, 21, 22, 22, 22, 23, 23, 23, 24, 24, 24, 25, 25, 26, 26, 26, 27, 27, 27, 28, 28, 29, 30, 30, 30, 31, 31, 32, 32, 33, 33, 33, 34, 34, 35, 35, 36, 36, 37, 38, 38, 39, 39, 39, 40, 40, 41, 41, 42, 42, 42, 43, 43, 44, 45, 46, 46, 47, 47, 48, 48, 48, 49, 49, 49, 50, 51, 51, 51, 52, 52, 53, 53, 54, 54, 54, 55, 56, 57, 57, 58, 59, 60, 61, 62, 62, 63, 63, 63, 64, 65, 65, 66, 67, 67, 68, 68, 69, 69, 70, 70, 70, 71, 71, 71, 72, 72, 73, 73, 73, 74, 74, 75, 75, 75, 75, 76, 77, 78, 78, 79, 80, 80, 81, 81, 82, 82, 82, 83, 83, 83, 84, 84, 84, 85, 85, 85, 86, 86, 86, 87, 87, 88, 89, 90, 91, 91, 91, 92, 92, 93, 93, 94, 94, 95, 96, 96, 97, 97, 98, 99, 99, 100, 100, 101, 101, 102, 102, 103, 103, 103, 104, 105, 106, 107, 108, 108, 108, 109, 110, 110, 110, 111, 111, 111];
L = [27, 26, 276, 11, 237, 62, 36, 123, 72, 32, 22, 63, 109, 94, 31, 94, 8, 9, 9, 9, 41, 5, 68, 12, 72, 57, 30, 23, 153, 23, 29, 180, 27, 26, 26, 32, 57, 31, 26, 53, 23, 91, 21, 53, 91, 26, 26, 94, 30, 153, 32, 25, 29, 24, 21, 94, 28, 27, 25, 31, 23, 31, 91, 23, 24, 129, 38, 20, 32, 29, 29, 30, 97, 12, 278, 12, 19, 31, 29, 29, 12, 108, 160, 71, 28, 20, 12, 37, 58, 125, 49, 368, 12, 13, 34, 63, 18, 23, 11, 125, 26, 32, 72, 30, 72, 57, 66, 23, 26, 72, 14, 13, 22, 72, 180, 25, 28, 39, 11, 58, 35, 53, 18, 39, 35, 43, 29, 27, 31, 57, 33, 27, 6, 89, 126, 14, 107, 13, 160, 24, 143, 23, 24, 24, 143, 20, 63, 32, 62, 63, 175, 11, 175, 32, 26, 25, 89, 240, 35, 27, 35, 37, 9, 32, 140, 13, 63, 26, 20, 129, 23, 28, 71, 13, 97, 109, 28, 42, 24, 28, 97, 65, 35, 26, 81, 100, 12, 433, 103, 6, 45, 5, 111, 58, 49, 52, 368, 120, 38, 54, 9, 31, 65, 35, 31, 18, 97, 31, 63, 36, 32, 63, 46, 23, 22, 37, 31, 24, 154, 24, 28, 28, 154, 94, 24, 42, 27, 26, 276, 11, 237, 62, 36, 123, 72, 32, 22, 63, 109, 94, 31, 94, 8, 9, 9, 9, 41, 5, 68, 12, 72, 57, 30, 23, 153, 23, 29, 180, 27, 26, 26, 32, 57, 31, 26, 53, 23, 91, 21, 53, 91, 26, 26, 94, 30, 153, 32, 25, 29, 24, 21, 94, 28, 27, 25, 31, 23, 31, 91, 23, 24, 129, 38, 20, 32, 29, 29, 30, 97, 12, 278, 12, 19, 31, 29, 29, 12, 108, 160, 71, 28, 20, 12, 37, 58, 125, 49, 368, 12, 13, 34, 63, 18, 23, 11, 125, 26, 32, 72, 30, 72, 57, 66, 23, 26, 72, 14, 13, 22, 72, 180, 25, 28, 39, 11, 58, 35, 53, 18, 39, 35, 43, 29, 27, 31, 57, 33, 27, 6, 89, 126, 14, 107, 13, 160, 24, 143, 23, 24, 24, 143, 20, 63, 32, 62, 63, 175, 11, 175, 32, 26, 25, 89, 240, 35, 27, 35, 37, 9, 32, 140, 13, 63, 26, 20, 129, 23, 28, 71, 13, 97, 109, 28, 42, 24, 28, 97, 65, 35, 26, 81, 100, 12, 433, 103, 6, 45, 5, 111, 58, 49, 52, 368, 120, 38, 54, 9, 31, 65, 35, 31, 18, 97, 31, 63, 36, 32, 63, 46, 23, 22, 37, 31, 24, 154, 24, 28, 28, 154, 94, 24, 42];
T = [4, 3, 20, 1, 17, 9, 5, 9, 10, 4, 3, 9, 15, 13, 4, 9, 0, 1, 1, 0, 3, 0, 6, 1, 10, 8, 4, 3, 21, 3, 4, 25, 3, 3, 3, 4, 8, 4, 3, 7, 3, 13, 3, 7, 13, 3, 3, 13, 4, 21, 4, 3, 4, 3, 3, 13, 4, 4, 3, 4, 3, 4, 13, 3, 3, 18, 2, 2, 4, 4, 4, 4, 13, 0, 20, 0, 1, 4, 4, 4, 0, 7, 22, 10, 4, 1, 0, 5, 8, 12, 4, 37, 0, 2, 3, 5, 2, 3, 1, 12, 3, 4, 10, 4, 10, 8, 4, 3, 3, 10, 1, 1, 3, 10, 25, 3, 4, 2, 0, 5, 2, 5, 1, 3, 3, 4, 2, 3, 4, 8, 3, 2, 0, 12, 9, 1, 7, 2, 22, 3, 20, 3, 3, 3, 20, 2, 9, 4, 9, 9, 25, 1, 25, 4, 3, 3, 12, 17, 3, 2, 3, 5, 0, 3, 12, 2, 9, 3, 2, 18, 3, 4, 10, 2, 13, 15, 4, 6, 3, 4, 13, 9, 5, 2, 7, 9, 1, 61, 10, 0, 4, 0, 11, 8, 4, 4, 37, 12, 2, 4, 1, 4, 9, 5, 4, 2, 13, 4, 9, 5, 4, 9, 4, 3, 2, 3, 4, 3, 22, 2, 4, 4, 22, 13, 3, 6, 4, 3, 20, 1, 17, 9, 5, 9, 10, 4, 3, 9, 15, 13, 4, 9, 0, 1, 1, 0, 3, 0, 6, 1, 10, 8, 4, 3, 21, 3, 4, 25, 3, 3, 3, 4, 8, 4, 3, 7, 3, 13, 3, 7, 13, 3, 3, 13, 4, 21, 4, 3, 4, 3, 3, 13, 4, 4, 3, 4, 3, 4, 13, 3, 3, 18, 2, 2, 4, 4, 4, 4, 13, 0, 20, 0, 1, 4, 4, 4, 0, 7, 22, 10, 4, 1, 0, 5, 8, 12, 4, 37, 0, 2, 3, 5, 2, 3, 1, 12, 3, 4, 10, 4, 10, 8, 4, 3, 3, 10, 1, 1, 3, 10, 25, 3, 4, 2, 0, 5, 2, 5, 1, 3, 3, 4, 2, 3, 4, 8, 3, 2, 0, 12, 9, 1, 7, 2, 22, 3, 20, 3, 3, 3, 20, 2, 9, 4, 9, 9, 25, 1, 25, 4, 3, 3, 12, 17, 3, 2, 3, 5, 0, 3, 12, 2, 9, 3, 2, 18, 3, 4, 10, 2, 13, 15, 4, 6, 3, 4, 13, 9, 5, 2, 7, 9, 1, 61, 10, 0, 4, 0, 11, 8, 4, 4, 37, 12, 2, 4, 1, 4, 9, 5, 4, 2, 13, 4, 9, 5, 4, 9, 4, 3, 2, 3, 4, 3, 22, 2, 4, 4, 22, 13, 3, 6];
Lower_Bound = [32, 111, 86, 139, 148, 33, 14, 102, 75, 163, 163, 83, 141, 83, 23, 3, 8, 22, 18, 21, 27, 14, 11, 21, 23, 24, 39, 25, 146, 0, 160, 25, 7, 131, 131, 28, 32, 132, 26, 132, 136, 124, 139, 65, 51, 51, 112, 31, 19, 107, 25, 140, 35, 34, 105, 160, 103, 151, 159, 55, 58, 62, 13, 167, 156, 30, 139, 141, 44, 21, 3, 137, 146, 145, 18, 162, 161, 158, 142, 159, 40, 5, 18, 36, 31, 20, 115, 89, 67, 74, 85, 156, 140, 128, 64, 160, 157, 163, 106, 121, 52, 124, 133, 93, 54, 93, 100, 40, 97, 22, 24];
Upper_Bound = [34, 124, 88, 140, 161, 38, 23, 107, 79, 166, 164, 85, 143, 86, 25, 12, 14, 25, 20, 26, 29, 21, 13, 24, 24, 30, 45, 26, 149, 6, 162, 36, 9, 134, 133, 34, 34, 139, 27, 148, 142, 125, 142, 68, 53, 58, 114, 34, 21, 110, 26, 141, 48, 37, 108, 162, 104, 161, 161, 56, 59, 68, 35, 168, 166, 33, 142, 150, 46, 22, 8, 138, 152, 146, 19, 163, 183, 165, 148, 162, 42, 8, 19, 40, 33, 24, 119, 92, 69, 79, 87, 162, 142, 133, 69, 165, 159, 168, 115, 130, 71, 126, 137, 98, 74, 95, 102, 42, 100, 26, 44];
Start = 30;
End = 34;
Time = 134;
